NAME: instances/15_4.tsp
TYPE: TSP
COMMENT: 15-Staedte in Burma (Zaw Win)
DIMENSION: 15
EDGE_WEIGHT_TYPE: GEO
EDGE_WEIGHT_FORMAT: FUNCTION
DISPLAY_DATA_TYPE: COORD_DISPLAY
NODE_COORD_SECTION
1 17.8 10.04
2 27.87 -29.7
3 3.36 13.63
4 -14.0 -15.81
5 -18.37 28.07
6 13.24 21.29
7 -7.53 9.69
8 -16.61 4.5
9 5.92 -18.37
10 9.47 -25.19
11 -1.83 -6.04
12 19.97 -16.45
13 -8.14 11.67
14 18.19 3.93
15 3.75 25.94
EOF
